[Enhanced_Skill_List]	BS	Skill_id	OLv	Rank	Enhanced_id
0	1	206	23	1	1
1	1	206	47	2	2
2	1	206	70	3	3
3	1	216	17	1	4
4	1	216	33	2	5
5	1	216	50	3	6
6	1	217	90	1	7
7	1	219	45	1	8
8	1	219	90	2	9
9	1	220	33	1	10
10	1	220	67	2	11
11	1	220	100	3	12
12	1	221	33	1	13
13	1	221	67	2	14
14	1	221	100	3	15
15	1	222	50	1	16
16	1	222	100	2	17
17	1	202	15	1	18
18	1	202	30	2	19
19	1	203	5	1	20
20	1	203	10	2	21
21	1	204	7	1	22
22	1	204	13	2	23
23	1	204	20	3	24
24	1	205	10	1	25
25	1	205	20	2	26
26	1	205	30	3	27
27	1	195	8	1	28
28	1	195	17	2	29
29	1	195	25	3	30
30	1	195	33	4	31
31	2	207	33	1	32
32	2	207	67	2	33
33	2	207	100	3	34
34	2	211	50	1	35
35	2	203	5	1	36
36	2	203	10	2	37
37	2	204	7	1	38
38	2	204	13	2	39
39	2	204	20	3	40
40	2	205	10	1	41
41	2	205	20	2	42
42	2	205	30	3	43
43	3	228	45	1	44
44	3	228	90	2	45
45	3	287	15	1	46
46	3	287	30	2	47
47	3	291	50	1	48
48	3	291	100	2	49
49	3	299	7	1	50
50	3	299	13	2	51
51	3	299	20	3	52
52	4	240	30	1	53
53	4	245	60	1	54
54	4	247	90	1	55
55	4	272	23	1	56
56	4	272	47	2	57
57	4	272	70	3	58
58	4	273	80	1	59
59	5	248	20	1	60
60	5	250	17	1	61
61	5	250	33	2	62
62	5	250	50	3	63
63	5	468	18	1	64
64	5	468	35	2	65
65	5	468	53	3	66
66	5	468	70	4	67
67	5	195	8	1	68
68	5	195	17	2	69
69	5	195	25	3	70
70	5	195	33	4	71
71	6	253	7	1	72
72	6	253	13	2	73
73	6	253	20	3	74
74	6	254	20	1	75
75	6	254	40	2	76
76	6	255	10	1	77
77	6	255	20	2	78
78	6	255	30	3	79
79	7	183	18	1	80
80	7	183	35	2	81
81	7	183	53	3	82
82	7	183	70	4	83
83	7	184	20	1	84
84	7	184	40	2	85
85	7	184	60	3	86
86	7	185	13	1	87
87	7	185	27	2	88
88	7	185	40	3	89
89	7	195	8	1	90
90	7	195	17	2	91
91	7	195	25	3	92
92	7	195	33	4	93
93	8	577	10	1	94
94	8	577	20	2	95
95	8	577	30	3	96
96	8	578	30	1	97
97	8	578	60	2	98
98	8	578	90	3	99
99	8	580	8	1	100
100	8	580	15	2	101
101	8	580	23	3	102
102	8	580	30	4	103
103	2	473	100	1	104
104	3	229	35	1	105
105	3	229	70	2	106
106	3	235	27	1	107
107	3	235	53	2	108
108	3	235	80	3	109
109	3	288	30	1	110
110	3	288	60	2	111
111	3	288	90	3	112
112	4	241	20	1	113
113	4	274	33	1	114
114	4	274	67	2	115
115	4	274	100	3	116
116	4	289	23	1	117
117	4	289	45	2	118
118	4	289	68	3	119
119	4	289	90	4	120
120	5	224	23	1	121
121	5	224	45	2	122
122	5	224	68	3	123
123	5	224	90	4	124
124	5	251	40	1	125
125	5	251	80	2	126
126	5	290	45	1	127
127	5	290	90	2	128
128	7	186	30	1	129
129	7	186	60	2	130
130	7	186	90	3	131
131	7	196	90	1	132
132	8	573	50	1	133
133	8	573	100	2	134
134	2	213	90	1	136
135	2	214	30	1	137
136	2	214	60	2	138
137	2	214	90	3	139
138	2	215	33	1	140
139	2	215	67	2	141
140	2	215	100	3	142
141	3	226	25	1	143
142	3	226	50	2	144
143	3	226	75	3	145
144	3	226	100	4	146
145	5	225	20	1	147
146	5	225	40	2	148
147	5	225	60	3	149
148	5	225	80	4	150
149	5	225	100	5	151
150	6	256	15	1	152
151	6	256	30	2	153
152	6	258	15	1	154
153	6	258	30	2	155
154	6	259	15	1	156
155	6	259	30	2	157
156	6	591	15	1	158
157	6	591	30	2	159
158	6	591	45	3	160
159	6	591	60	4	161
160	7	178	30	1	162
161	7	178	60	2	163
162	7	178	90	3	164
163	7	179	50	1	165
164	3	236	20	1	166
165	3	236	40	2	167
166	3	236	60	3	168
167	4	242	25	1	169
168	4	242	50	2	170
169	4	688	50	1	171
170	4	688	100	2	172
171	5	257	8	1	173
172	5	257	15	2	174
173	6	262	80	1	175
174	6	269	100	1	176
175	6	270	100	1	177
176	6	241	20	1	178
177	6	257	8	1	179
178	6	257	15	2	180
179	7	181	50	1	181
180	7	181	100	2	182
181	8	574	100	1	183
182	8	689	33	1	184
183	8	689	67	2	185
184	8	689	100	3	186
185	8	575	20	1	187
186	8	575	40	2	188
187	8	576	23	1	189
188	8	576	45	2	190
189	8	576	68	3	191
190	8	576	90	4	192
191	1	625	11	1	194
192	1	625	22	2	195
193	1	625	33	3	196
194	1	625	44	4	197
195	1	625	56	5	198
196	1	625	67	6	199
197	1	625	78	7	200
198	1	625	89	8	201
199	1	625	100	9	202
200	2	626	13	1	203
201	2	626	25	2	204
202	2	626	38	3	205
203	2	626	50	4	206
204	2	626	63	5	207
205	2	626	75	6	208
206	2	626	88	7	209
207	2	626	100	8	210
208	3	627	13	1	211
209	3	627	25	2	212
210	3	627	38	3	213
211	3	627	50	4	214
212	3	627	63	5	215
213	3	627	75	6	216
214	3	627	88	7	217
215	3	627	100	8	218
216	4	628	11	1	219
217	4	628	22	2	220
218	4	628	33	3	221
219	4	628	44	4	222
220	4	628	56	5	223
221	4	628	67	6	224
222	4	628	78	7	225
223	4	628	89	8	226
224	4	628	100	9	227
225	5	629	11	1	228
226	5	629	22	2	229
227	5	629	33	3	230
228	5	629	44	4	231
229	5	629	56	5	232
230	5	629	67	6	233
231	5	629	78	7	234
232	5	629	89	8	235
233	5	629	100	9	236
234	6	630	11	1	237
235	6	630	22	2	238
236	6	630	33	3	239
237	6	630	44	4	240
238	6	630	56	5	241
239	6	630	67	6	242
240	6	630	78	7	243
241	6	630	89	8	244
242	6	630	100	9	245
243	7	631	11	1	246
244	7	631	22	2	247
245	7	631	33	3	248
246	7	631	44	4	249
247	7	631	56	5	250
248	7	631	67	6	251
249	7	631	78	7	252
250	7	631	89	8	253
251	7	631	100	9	254
252	8	632	13	1	255
253	8	632	25	2	256
254	8	632	38	3	257
255	8	632	50	4	258
256	8	632	63	5	259
257	8	632	75	6	260
258	8	632	88	7	261
259	8	632	100	8	262
260	9	687	11	1	263
261	9	687	22	2	264
262	9	687	33	3	265
263	9	687	44	4	266
264	9	687	56	5	267
265	9	687	67	6	268
266	9	687	78	7	269
267	9	687	89	8	270
268	9	687	100	9	271
269	5	249	40	1	272
270	9	675	13	1	273
271	9	675	25	2	274
272	9	675	38	3	275
273	9	675	50	4	276
274	9	676	20	1	277
275	9	676	40	2	278
276	9	676	60	3	279
277	9	677	30	1	280
278	9	677	60	2	281
279	9	678	35	1	282
280	9	678	70	2	283
281	4	244	50	1	135
282	9	690	7	1	284
283	9	690	13	2	285
284	9	690	20	3	286
285	9	691	15	1	287
286	9	691	30	2	288
287	9	692	50	1	289
288	9	692	100	2	290
289	9	682	30	1	291
290	9	682	60	2	292
291	9	682	90	3	293
292	9	684	25	1	294
293	9	684	50	2	295
294	9	684	75	3	296
295	9	684	100	4	297
296	7	188	10	1	298
297	7	188	20	2	299
298	7	188	30	3	300
299	7	188	40	4	301

[Enhanced_ID_List]	Id	ForceCode_id	Value	Value_type
0	1	5	-100	1
1	2	98	-20	2
2	2	5	-100	1
3	3	98	-20	2
4	3	5	-100	1
5	3	78	-100	1
6	4	3	100	1
7	5	3	100	1
8	5	128	30	2
9	6	3	100	1
10	6	128	30	2
11	6	163	100	1
12	7	60	500	1
13	8	37	1400	1
14	9	37	1400	1
15	9	63	6000	1
16	10	60	5000	1
17	11	60	5000	1
18	11	156	1500	1
19	11	157	250	1
20	12	60	5000	1
21	12	156	1500	1
22	12	157	250	1
23	12	98	150	2
24	12	112	250	2
25	13	3	220	1
26	14	3	220	1
27	14	163	150	1
28	15	3	220	1
29	15	163	150	1
30	15	128	30	2
31	15	139	50	1
32	16	113	80	1
33	17	113	80	1
34	17	128	10	2
35	18	3	120	1
36	19	3	120	1
37	19	153	20	2
38	20	6	500	1
39	21	6	500	1
40	21	71	600	1
41	22	1	200	1
42	23	1	200	1
43	23	5	30	1
44	24	1	200	1
45	24	5	30	1
46	24	155	50	1
47	25	1	400	1
48	26	1	400	1
49	26	5	60	1
50	27	1	400	1
51	27	5	60	1
52	27	155	100	1
53	28	74	60	1
54	29	74	60	1
55	29	81	100	1
56	30	74	60	1
57	30	81	100	1
58	30	98	40	2
59	31	74	60	1
60	31	81	100	1
61	31	98	40	2
62	31	112	30	2
63	32	5	-100	1
64	33	5	-100	1
65	33	7	-2000	1
66	34	5	-100	1
67	34	7	-2000	1
68	34	98	-70	2
69	35	72	1000	1
70	36	6	500	1
71	37	6	500	1
72	37	71	600	1
73	38	1	200	1
74	39	1	200	1
75	39	155	50	1
76	40	1	200	1
77	40	155	50	1
78	40	5	30	1
79	41	1	400	1
80	42	1	400	1
81	42	155	100	1
82	43	1	400	1
83	43	155	100	1
84	43	5	60	1
85	44	37	500	1
86	45	37	500	1
87	45	63	1000	1
88	46	4	250	1
89	47	4	250	1
90	47	153	40	2
91	48	163	250	1
92	49	163	250	1
93	49	80	100	1
94	50	7	300	1
95	51	7	300	1
96	51	6	500	1
97	52	7	300	1
98	52	6	500	1
99	52	156	20	1
100	53	71	1000	1
101	54	63	800	1
102	55	63	1700	1
103	56	158	40	2
104	57	158	40	2
105	57	127	120	2
106	58	158	40	2
107	58	127	120	2
108	58	128	40	2
109	59	159	50	2
110	60	158	30	2
111	61	155	250	1
112	61	5	100	1
113	62	155	250	1
114	62	5	100	1
115	62	156	50	1
116	62	81	100	1
117	63	155	250	1
118	63	5	100	1
119	63	156	50	1
120	63	81	100	1
121	63	157	120	1
122	63	98	50	2
123	64	3	60	1
124	65	3	60	1
125	65	74	40	1
126	66	3	60	1
127	66	74	40	1
128	66	127	40	2
129	67	3	60	1
130	67	74	40	1
131	67	127	40	2
132	67	112	20	2
133	68	81	100	1
134	69	81	100	1
135	69	74	60	1
136	70	81	100	1
137	70	74	60	1
138	70	98	40	2
139	71	81	100	1
140	71	74	60	1
141	71	98	40	2
142	71	112	30	2
143	72	5	90	1
144	73	5	90	1
145	73	98	30	2
146	74	5	90	1
147	74	98	30	2
148	74	112	10	2
149	75	1	400	1
150	76	1	400	1
151	76	81	50	1
152	77	6	800	1
153	78	6	800	1
154	78	72	500	1
155	79	6	800	1
156	79	72	500	1
157	79	75	600	1
158	80	3	70	1
159	81	3	70	1
160	81	163	50	1
161	82	3	70	1
162	82	163	50	1
163	82	139	50	1
164	83	3	70	1
165	83	163	50	1
166	83	139	50	1
167	83	153	20	2
168	84	1	250	1
169	84	5	80	1
170	85	1	250	1
171	85	5	80	1
172	85	156	100	1
173	86	1	250	1
174	86	5	80	1
175	86	156	100	1
176	86	81	200	1
177	87	3	40	1
178	88	3	40	1
179	88	7	350	1
180	89	3	40	1
181	89	7	350	1
182	89	6	700	1
183	90	74	60	1
184	91	74	60	1
185	91	81	100	1
186	92	74	60	1
187	92	81	100	1
188	92	98	40	2
189	93	74	60	1
190	93	81	100	1
191	93	98	40	2
192	93	112	30	2
193	94	6	200	1
194	95	6	200	1
195	95	158	20	2
196	96	6	200	1
197	96	158	20	2
198	96	71	800	1
199	97	6	400	1
200	98	6	400	1
201	98	158	40	2
202	99	6	400	1
203	99	158	40	2
204	99	71	900	1
205	100	163	150	1
206	101	163	150	1
207	101	155	30	1
208	102	163	150	1
209	102	155	30	1
210	102	158	80	2
211	103	163	150	1
212	103	155	30	1
213	103	158	80	2
214	103	8	30	2
215	104	127	20	2
216	105	37	1500	1
217	106	37	1500	1
218	106	63	4500	1
219	107	155	2000	1
220	107	156	1000	1
221	108	155	2000	1
222	108	156	1000	1
223	108	157	500	1
224	108	98	1000	2
225	109	155	2000	1
226	109	156	1000	1
227	109	157	500	1
228	109	98	1000	2
229	109	97	50	2
230	109	112	200	2
231	110	67	25000	1
232	111	67	25000	1
233	111	156	2400	1
234	111	157	1200	1
235	112	67	25000	1
236	112	156	2400	1
237	112	157	1200	1
238	112	98	1800	2
239	113	74	-300	1
240	114	158	30	2
241	115	158	30	2
242	115	127	90	2
243	116	158	30	2
244	116	127	90	2
245	116	128	40	2
246	117	156	700	1
247	118	156	700	1
248	118	157	1400	1
249	119	156	700	1
250	119	157	1400	1
251	119	98	1000	2
252	120	156	700	1
253	120	157	1400	1
254	120	98	1000	2
255	120	112	500	2
256	121	156	100	1
257	121	67	10000	1
258	122	156	100	1
259	122	67	20000	1
260	122	157	150	1
261	123	156	100	1
262	123	67	30000	1
263	123	157	150	1
264	123	98	50	2
265	124	156	100	1
266	124	67	45000	1
267	124	157	150	1
268	124	98	50	2
269	124	112	10	2
270	125	127	50	2
271	125	158	40	2
272	126	127	50	2
273	126	158	40	2
274	126	30	10	2
275	126	153	10	2
276	127	157	300	1
277	128	157	300	1
278	128	112	50	2
279	129	67	15000	1
280	130	67	15000	1
281	130	156	150	1
282	130	157	50	1
283	131	67	15000	1
284	131	156	1500	1
285	131	157	500	1
286	131	81	1200	1
287	131	112	250	2
288	132	63	5500	1
289	133	163	150	1
290	133	158	80	2
291	134	163	150	1
292	134	158	80	2
293	134	80	100	1
294	134	127	20	2
295	135	1	350	1
296	136	37	500	1
297	137	158	40	2
298	137	163	130	1
299	138	158	40	2
300	138	163	130	1
301	138	80	50	1
302	139	158	40	2
303	139	163	130	1
304	139	80	50	1
305	139	73	1200	1
306	140	3	150	1
307	141	3	150	1
308	141	158	20	2
309	142	3	150	1
310	142	158	20	2
311	142	152	20	2
312	143	4	250	1
313	144	4	250	1
314	144	163	200	1
315	145	4	250	1
316	145	163	200	1
317	145	151	20	2
318	146	4	250	1
319	146	163	200	1
320	146	151	20	2
321	146	139	100	1
322	147	155	3000	1
323	148	155	3000	1
324	148	156	800	1
325	149	155	3000	1
326	149	156	800	1
327	149	157	400	1
328	150	155	3000	1
329	150	156	800	1
330	150	157	400	1
331	150	98	600	2
332	151	155	3000	1
333	151	156	800	1
334	151	157	400	1
335	151	98	600	2
336	151	112	100	2
337	152	139	80	1
338	153	139	80	1
339	153	128	20	2
340	154	71	500	1
341	155	71	500	1
342	155	128	10	2
343	156	73	50	1
344	157	73	50	1
345	157	128	20	2
346	158	156	900	1
347	159	156	900	1
348	159	157	1800	1
349	160	156	900	1
350	160	157	1800	1
351	160	98	1100	2
352	161	156	900	1
353	161	157	1800	1
354	161	98	1100	2
355	161	112	500	2
356	162	3	200	1
357	163	3	200	1
358	163	163	80	1
359	163	152	30	2
360	164	3	200	1
361	164	163	80	1
362	164	152	30	2
363	164	139	120	1
364	165	63	700	1
365	166	1	350	1
366	167	1	350	1
367	167	155	60	1
368	168	1	350	1
369	168	155	60	1
370	168	156	20	1
371	169	113	30	1
372	170	113	30	1
373	170	128	10	2
374	171	63	2000	1
375	172	63	4000	1
376	173	7	-2000	1
377	174	7	-2000	1
378	174	36	-1000	1
379	175	98	-40	2
380	176	2	-600	1
381	177	61	20	1
382	178	74	-300	1
383	179	7	-2000	1
384	180	7	-2000	1
385	180	36	-1000	1
386	181	158	10	2
387	182	158	10	2
388	182	127	10	2
389	183	63	2000	1
390	184	67	4000	1
391	185	67	4000	1
392	185	157	1000	1
393	186	67	4000	1
394	186	157	1000	1
395	186	112	50	2
396	187	158	10	2
397	188	158	10	2
398	188	157	30	1
399	189	5	-200	1
400	190	5	-200	1
401	190	7	-200	1
402	191	5	-200	1
403	191	7	-200	1
404	191	74	-600	1
405	192	5	-200	1
406	192	7	-200	1
407	192	74	-600	1
408	192	112	-20	2
409	193	5	-200	1
410	193	7	-200	1
411	193	155	-300	1
412	193	157	-900	1
413	193	112	-20	2
414	194	1	3000	1
415	195	1	3000	1
416	195	155	850	1
417	196	1	3000	1
418	196	155	850	1
419	196	157	240	1
420	197	1	3000	1
421	197	155	850	1
422	197	157	240	1
423	197	81	500	1
424	198	1	3000	1
425	198	155	850	1
426	198	157	240	1
427	198	81	500	1
428	198	112	120	2
429	199	1	3000	1
430	199	155	850	1
431	199	157	240	1
432	199	81	500	1
433	199	112	120	2
434	199	149	140	2
435	200	1	3000	1
436	200	155	850	1
437	200	157	240	1
438	200	81	500	1
439	200	112	120	2
440	200	149	140	2
441	200	148	70	2
442	201	1	3000	1
443	201	155	850	1
444	201	157	240	1
445	201	81	500	1
446	201	112	120	2
447	201	149	140	2
448	201	148	70	2
449	201	163	100	1
450	202	1	3000	1
451	202	155	850	1
452	202	157	240	1
453	202	81	500	1
454	202	112	120	2
455	202	149	140	2
456	202	148	70	2
457	202	163	100	1
458	202	128	20	2
459	203	1	2100	1
460	204	1	2100	1
461	204	155	700	1
462	205	1	2100	1
463	205	155	700	1
464	205	156	240	1
465	206	1	2100	1
466	206	155	700	1
467	206	156	240	1
468	206	157	150	1
469	207	1	2100	1
470	207	155	700	1
471	207	156	240	1
472	207	157	150	1
473	207	149	110	2
474	208	1	2100	1
475	208	155	700	1
476	208	156	240	1
477	208	157	150	1
478	208	149	110	2
479	208	148	50	2
480	209	1	2100	1
481	209	155	700	1
482	209	156	240	1
483	209	157	150	1
484	209	149	110	2
485	209	148	50	2
486	209	153	40	2
487	210	1	2100	1
488	210	155	700	1
489	210	156	240	1
490	210	157	150	1
491	210	149	110	2
492	210	148	50	2
493	210	153	40	2
494	210	158	30	2
495	211	1	1100	1
496	212	1	1100	1
497	212	155	450	1
498	213	1	1100	1
499	213	155	450	1
500	213	156	160	1
501	214	1	1100	1
502	214	155	450	1
503	214	156	160	1
504	214	157	80	1
505	215	1	1100	1
506	215	155	450	1
507	215	156	160	1
508	215	157	80	1
509	215	149	40	2
510	216	1	1100	1
511	216	155	450	1
512	216	156	160	1
513	216	157	80	1
514	216	149	40	2
515	216	148	110	2
516	217	1	1100	1
517	217	155	450	1
518	217	156	160	1
519	217	157	80	1
520	217	149	40	2
521	217	148	110	2
522	217	163	170	1
523	218	1	1100	1
524	218	155	450	1
525	218	156	160	1
526	218	157	80	1
527	218	149	40	2
528	218	148	110	2
529	218	163	170	1
530	218	153	20	2
531	219	1	1500	1
532	220	1	1500	1
533	220	155	330	1
534	221	1	1500	1
535	221	155	330	1
536	221	162	30	2
537	222	1	1500	1
538	222	155	330	1
539	222	162	30	2
540	222	97	10	2
541	223	1	1500	1
542	223	155	330	1
543	223	162	30	2
544	223	97	10	2
545	223	98	200	2
546	224	1	1500	1
547	224	155	330	1
548	224	162	30	2
549	224	97	10	2
550	224	98	200	2
551	224	149	60	2
552	225	1	1500	1
553	225	155	330	1
554	225	162	30	2
555	225	97	10	2
556	225	98	200	2
557	225	149	60	2
558	225	148	160	2
559	226	1	1500	1
560	226	155	330	1
561	226	162	30	2
562	226	97	10	2
563	226	98	200	2
564	226	149	60	2
565	226	148	160	2
566	226	128	10	2
567	227	1	1500	1
568	227	155	330	1
569	227	162	30	2
570	227	97	10	2
571	227	98	200	2
572	227	149	60	2
573	227	148	160	2
574	227	128	10	2
575	227	127	80	2
576	228	1	2500	1
577	229	1	2500	1
578	229	155	1000	1
579	230	1	2500	1
580	230	155	1000	1
581	230	157	300	1
582	231	1	2500	1
583	231	155	1000	1
584	231	157	300	1
585	231	81	700	1
586	232	1	2500	1
587	232	155	1000	1
588	232	157	300	1
589	232	81	700	1
590	232	112	150	2
591	233	1	2500	1
592	233	155	1000	1
593	233	157	300	1
594	233	81	700	1
595	233	112	150	2
596	233	149	180	2
597	234	1	2500	1
598	234	155	1000	1
599	234	157	300	1
600	234	81	700	1
601	234	112	150	2
602	234	149	180	2
603	234	148	80	2
604	235	1	2500	1
605	235	155	1000	1
606	235	157	300	1
607	235	81	700	1
608	235	112	150	2
609	235	149	180	2
610	235	148	80	2
611	235	158	30	2
612	236	1	2500	1
613	236	155	1000	1
614	236	157	300	1
615	236	81	700	1
616	236	112	150	2
617	236	149	180	2
618	236	148	80	2
619	236	158	30	2
620	236	127	20	2
621	237	1	2000	1
622	238	1	2000	1
623	238	155	450	1
624	239	1	2000	1
625	239	155	450	1
626	239	162	50	2
627	240	1	2000	1
628	240	155	450	1
629	240	162	50	2
630	240	97	10	2
631	241	1	2000	1
632	241	155	450	1
633	241	162	50	2
634	241	97	10	2
635	241	98	250	2
636	242	1	2000	1
637	242	155	450	1
638	242	162	50	2
639	242	97	10	2
640	242	98	250	2
641	242	149	130	2
642	243	1	2000	1
643	243	155	450	1
644	243	162	50	2
645	243	97	10	2
646	243	98	250	2
647	243	149	130	2
648	243	148	60	2
649	244	1	2000	1
650	244	155	450	1
651	244	162	50	2
652	244	97	10	2
653	244	98	250	2
654	244	149	130	2
655	244	148	60	2
656	244	128	20	2
657	245	1	2000	1
658	245	155	450	1
659	245	162	50	2
660	245	97	10	2
661	245	98	250	2
662	245	149	130	2
663	245	148	60	2
664	245	128	20	2
665	245	127	50	2
666	246	1	2400	1
667	247	1	2400	1
668	247	155	900	1
669	248	1	2400	1
670	248	155	900	1
671	248	157	260	1
672	249	1	2400	1
673	249	155	900	1
674	249	157	260	1
675	249	81	600	1
676	250	1	2400	1
677	250	155	900	1
678	250	157	260	1
679	250	81	600	1
680	250	112	130	2
681	251	1	2400	1
682	251	155	900	1
683	251	157	260	1
684	251	81	600	1
685	251	112	130	2
686	251	149	150	2
687	252	1	2400	1
688	252	155	900	1
689	252	157	260	1
690	252	81	600	1
691	252	112	130	2
692	252	149	150	2
693	252	148	70	2
694	253	1	2400	1
695	253	155	900	1
696	253	157	260	1
697	253	81	600	1
698	253	112	130	2
699	253	149	150	2
700	253	148	70	2
701	253	153	30	2
702	254	1	2400	1
703	254	155	900	1
704	254	157	260	1
705	254	81	600	1
706	254	112	130	2
707	254	149	150	2
708	254	148	70	2
709	254	153	30	2
710	254	139	90	1
711	255	1	1300	1
712	256	1	1300	1
713	256	155	500	1
714	257	1	1300	1
715	257	155	500	1
716	257	156	180	1
717	258	1	1300	1
718	258	155	500	1
719	258	156	180	1
720	258	157	100	1
721	259	1	1300	1
722	259	155	500	1
723	259	156	180	1
724	259	157	100	1
725	259	149	50	2
726	260	1	1300	1
727	260	155	500	1
728	260	156	180	1
729	260	157	100	1
730	260	149	50	2
731	260	148	120	2
732	261	1	1300	1
733	261	155	500	1
734	261	156	180	1
735	261	157	100	1
736	261	149	50	2
737	261	148	120	2
738	261	163	130	1
739	262	1	1300	1
740	262	155	500	1
741	262	156	180	1
742	262	157	100	1
743	262	149	50	2
744	262	148	120	2
745	262	163	130	1
746	262	158	40	2
747	263	1	1600	1
748	264	1	1600	1
749	264	155	350	1
750	265	1	1600	1
751	265	155	350	1
752	265	162	40	2
753	266	1	1600	1
754	266	155	350	1
755	266	162	40	2
756	266	97	10	2
757	267	1	1600	1
758	267	155	350	1
759	267	162	40	2
760	267	97	10	2
761	267	98	180	2
762	268	1	1600	1
763	268	155	350	1
764	268	162	40	2
765	268	97	10	2
766	268	98	180	2
767	268	149	60	2
768	269	1	1600	1
769	269	155	350	1
770	269	162	40	2
771	269	97	10	2
772	269	98	180	2
773	269	149	60	2
774	269	148	150	2
775	270	1	1600	1
776	270	155	350	1
777	270	162	40	2
778	270	97	10	2
779	270	98	180	2
780	270	149	60	2
781	270	148	150	2
782	270	128	20	2
783	271	1	1600	1
784	271	155	350	1
785	271	162	40	2
786	271	97	10	2
787	271	98	180	2
788	271	149	60	2
789	271	148	150	2
790	271	128	20	2
791	271	139	160	1
792	272	63	2500	1
793	273	155	300	1
794	274	155	300	1
795	274	98	1100	2
796	275	155	300	1
797	275	98	1100	2
798	275	112	400	2
799	276	155	300	1
800	276	98	1100	2
801	276	112	400	2
802	276	97	70	2
803	277	7	-5000	1
804	278	7	-5000	1
805	278	36	-2000	1
806	279	7	-5000	1
807	279	36	-2000	1
808	279	72	-4000	1
809	280	1	-8000	1
810	281	1	-8000	1
811	281	37	-500	1
812	282	167	-50	2
813	283	167	-50	2
814	283	5	-200	1
815	284	7	500	1
816	285	7	500	1
817	285	6	300	1
818	286	7	500	1
819	286	6	300	1
820	286	81	100	1
821	287	4	200	1
822	288	4	200	1
823	288	139	220	1
824	289	32	20	2
825	290	32	20	2
826	290	128	40	2
827	291	67	25000	1
828	292	67	25000	1
829	292	112	500	2
830	293	67	25000	1
831	293	112	500	2
832	293	74	3000	1
833	294	163	200	1
834	295	163	200	1
835	295	153	20	2
836	296	163	200	1
837	296	153	20	2
838	296	4	250	1
839	297	163	200	1
840	297	153	20	2
841	297	4	250	1
842	297	139	100	1
843	298	5	-200	1
844	299	5	-200	1
845	299	78	-500	1
846	300	5	-200	1
847	300	78	-500	1
848	300	112	-10	2
849	301	5	-200	1
850	301	78	-500	1
851	301	112	-10	2
852	301	98	-20	2

[Skill_Point]	OLV	Point
0	1	2
1	2	2
2	3	2
3	4	2
4	5	2
5	6	2
6	7	2
7	8	2
8	9	2
9	10	2
10	11	2
11	12	2
12	13	2
13	14	2
14	15	2
15	16	2
16	17	2
17	18	2
18	19	2
19	20	2
20	21	2
21	22	2
22	23	2
23	24	2
24	25	2
25	26	2
26	27	2
27	28	2
28	29	2
29	30	2
30	31	2
31	32	2
32	33	2
33	34	2
34	35	2
35	36	2
36	37	2
37	38	2
38	39	2
39	40	2
40	41	2
41	42	2
42	43	2
43	44	2
44	45	2
45	46	2
46	47	2
47	48	2
48	49	2
49	50	2
50	51	2
51	52	2
52	53	2
53	54	2
54	55	2
55	56	2
56	57	2
57	58	2
58	59	2
59	60	2
60	61	2
61	62	2
62	63	2
63	64	2
64	65	2
65	66	2
66	67	2
67	68	2
68	69	2
69	70	2
70	71	2
71	72	2
72	73	2
73	74	2
74	75	2
75	76	2
76	77	2
77	78	2
78	79	2
79	80	2
80	81	2
81	82	2
82	83	2
83	84	2
84	85	2
85	86	2
86	87	2
87	88	2
88	89	2
89	90	2
90	91	2
91	92	2
92	93	2
93	94	2
94	95	2
95	96	2
96	97	2
97	98	2
98	99	2
99	100	2

[Slot_List]	Slot_id	Open_OLv	Preceding_Slot_id	Preceding_Slot_Lv	Slot_type	MaxLv	Cost_Point_Type	Cost_Point_Value	Cost_Item_id1	Count_1	Cost_Item_id2	Count_2	TrainCost
0	1	1	0	0	0	5	3	50	33556518	10	0	0	2
1	2	1	1	3	0	5	3	50	33556518	10	0	0	2
2	3	1	1	3	0	5	3	50	33556518	10	0	0	2
3	4	9	2	3	0	5	3	100	33556518	20	0	0	2
4	5	9	3	3	0	5	3	100	33556518	20	0	0	2
5	6	15	1	5	1	5	3	150	33556518	30	0	0	3
6	7	15	6	3	1	5	3	150	33556518	30	0	0	4
7	8	15	6	3	1	5	3	150	33556518	30	0	0	3
8	9	24	7	3	1	5	3	200	33556518	40	0	0	4
9	10	24	8	3	1	5	3	200	33556518	40	0	0	3
10	11	30	9	5	3	10	3	250	33556518	50	0	0	4
11	12	30	6	5	2	5	3	250	33556518	50	0	0	4
12	13	30	12	3	2	5	3	250	33556518	50	0	0	6
13	14	30	12	3	2	5	3	250	33556518	50	0	0	4
14	15	36	13	3	4	10	3	300	33556518	60	0	0	6
15	16	36	13	3	5	10	3	300	33556518	60	0	0	6
16	17	36	14	3	2	5	3	300	33556518	60	0	0	4
17	18	42	15,16	3,3	6	10	3	350	33556518	70	0	0	7

[Perk_List]	Perk_id	BS	Slot_id
0	0	1	1
1	1	1	2
2	2	1	3
3	3	1	4
4	4	1	5
5	5	1	6
6	6	1	7
7	7	1	8
8	8	1	9
9	9	1	10
10	10	1	11
11	11	1	12
12	12	1	13
13	13	1	14
14	14	1	15
15	15	1	16
16	16	1	17
17	17	1	18
18	18	2	1
19	19	2	2
20	20	2	3
21	21	2	4
22	22	2	5
23	23	2	6
24	24	2	7
25	25	2	8
26	26	2	9
27	27	2	10
28	28	2	11
29	29	2	12
30	30	2	13
31	31	2	14
32	32	2	15
33	33	2	16
34	34	2	17
35	35	2	18
36	36	3	1
37	37	3	2
38	38	3	3
39	39	3	4
40	40	3	5
41	41	3	6
42	42	3	7
43	43	3	8
44	44	3	9
45	45	3	10
46	46	3	11
47	47	3	12
48	48	3	13
49	49	3	14
50	50	3	15
51	51	3	16
52	52	3	17
53	53	3	18
54	54	4	1
55	55	4	2
56	56	4	3
57	57	4	4
58	58	4	5
59	59	4	6
60	60	4	7
61	61	4	8
62	62	4	9
63	63	4	10
64	64	4	11
65	65	4	12
66	66	4	13
67	67	4	14
68	68	4	15
69	69	4	16
70	70	4	17
71	71	4	18
72	72	5	1
73	73	5	2
74	74	5	3
75	75	5	4
76	76	5	5
77	77	5	6
78	78	5	7
79	79	5	8
80	80	5	9
81	81	5	10
82	82	5	11
83	83	5	12
84	84	5	13
85	85	5	14
86	86	5	15
87	87	5	16
88	88	5	17
89	89	5	18
90	90	6	1
91	91	6	2
92	92	6	3
93	93	6	4
94	94	6	5
95	95	6	6
96	96	6	7
97	97	6	8
98	98	6	9
99	99	6	10
100	100	6	11
101	101	6	12
102	102	6	13
103	103	6	14
104	104	6	15
105	105	6	16
106	106	6	17
107	107	6	18
108	108	7	1
109	109	7	2
110	110	7	3
111	111	7	4
112	112	7	5
113	113	7	6
114	114	7	7
115	115	7	8
116	116	7	9
117	117	7	10
118	118	7	11
119	119	7	12
120	120	7	13
121	121	7	14
122	122	7	15
123	123	7	16
124	124	7	17
125	125	7	18
126	126	8	1
127	127	8	2
128	128	8	3
129	129	8	4
130	130	8	5
131	131	8	6
132	132	8	7
133	133	8	8
134	134	8	9
135	135	8	10
136	136	8	11
137	137	8	12
138	138	8	13
139	139	8	14
140	140	8	15
141	141	8	16
142	142	8	17
143	143	8	18
144	144	9	1
145	145	9	2
146	146	9	3
147	147	9	4
148	148	9	5
149	149	9	6
150	150	9	7
151	151	9	8
152	152	9	9
153	153	9	10
154	154	9	11
155	155	9	12
156	156	9	13
157	157	9	14
158	158	9	15
159	159	9	16
160	160	9	17
161	161	9	18

[SkillSet_List]	Perk_id	Skill_id	ForceCode_id	Value	Value_type
0	0	340	1	500	1
1	1	340	113	90	1
2	1	340	6	200	1
3	2	340	37	20	1
4	3	340	80	40	1
5	4	340	5	160	1
6	5	341	1	600	1
7	6	341	113	110	1
8	6	341	6	320	1
9	7	341	37	30	1
10	8	341	80	50	1
11	9	341	5	180	1
12	10	400	114	40	2
13	10	400	80	150	1
14	11	475	1	700	1
15	12	475	113	70	1
16	12	475	80	20	1
17	13	475	37	40	1
18	14	481	80	24	1
19	15	482	80	24	1
20	16	475	5	210	1
21	17	483	114	10	2
22	17	483	80	45	1
23	17	484	114	10	2
24	17	484	80	47	1
25	17	485	114	10	2
26	17	485	80	50	1
27	18	342	1	360	1
28	19	342	113	10	1
29	19	342	6	380	1
30	20	342	7	240	1
31	21	342	30	10	2
32	21	342	8	10	2
33	22	342	5	100	1
34	22	342	36	100	1
35	23	343	1	400	1
36	24	343	113	20	1
37	24	343	6	320	1
38	25	343	7	320	1
39	26	343	30	12	2
40	26	343	8	12	2
41	27	343	5	110	1
42	27	343	36	140	1
43	28	402	114	50	2
44	28	402	80	125	1
45	29	476	1	450	1
46	30	476	113	12	1
47	30	476	30	6	2
48	30	476	8	6	2
49	31	476	7	400	1
50	32	486	80	4	1
51	32	486	8	9	2
52	33	487	80	4	1
53	33	487	8	9	2
54	34	476	5	140	1
55	34	476	36	180	1
56	35	488	114	10	2
57	35	488	8	18	2
58	35	489	114	10	2
59	35	489	8	19	2
60	35	490	114	10	2
61	35	490	8	21	2
62	36	344	1	260	1
63	37	344	113	100	1
64	37	344	6	380	1
65	38	344	7	160	1
66	39	344	80	60	1
67	40	344	5	70	1
68	41	345	1	300	1
69	42	345	113	120	1
70	42	345	6	400	1
71	43	345	7	240	1
72	44	345	80	70	1
73	45	345	5	80	1
74	46	404	114	35	2
75	46	404	80	200	1
76	47	477	1	350	1
77	48	477	113	80	1
78	48	477	32	2	2
79	48	477	80	20	1
80	48	477	8	2	2
81	49	477	5	55	1
82	50	491	80	25	1
83	51	492	80	25	1
84	52	477	5	55	1
85	53	493	114	10	2
86	53	493	80	46	1
87	53	494	114	10	2
88	53	494	80	48	1
89	53	495	114	10	2
90	53	495	80	51	1
91	54	346	1	300	1
92	55	346	113	60	1
93	55	346	6	400	1
94	55	346	79	30	1
95	56	346	7	70	1
96	57	346	32	4	2
97	57	346	8	16	2
98	58	346	5	80	1
99	59	347	1	340	1
100	60	347	113	70	1
101	60	347	6	440	1
102	61	347	7	100	1
103	62	347	32	6	2
104	62	347	8	18	2
105	63	347	5	90	1
106	64	406	114	40	2
107	64	406	80	50	1
108	64	406	8	47	2
109	65	478	1	390	1
110	66	478	113	56	1
111	66	478	6	480	1
112	66	478	79	60	1
113	66	478	32	2	2
114	66	478	8	10	2
115	67	478	5	60	1
116	68	496	8	11	2
117	69	497	8	11	2
118	70	478	5	60	1
119	71	498	114	10	2
120	71	498	8	17	2
121	71	499	114	10	2
122	71	499	8	18	2
123	71	500	114	10	2
124	71	500	8	20	2
125	72	348	1	400	1
126	73	348	113	30	1
127	73	348	6	380	1
128	74	348	74	20	1
129	75	348	8	16	2
130	76	348	5	190	1
131	77	349	1	480	1
132	78	349	113	50	1
133	78	349	6	420	1
134	79	349	74	3	1
135	80	349	8	18	2
136	81	349	5	220	1
137	82	408	114	35	2
138	82	408	80	50	1
139	82	408	8	56	2
140	83	479	1	550	1
141	84	479	113	40	1
142	84	479	8	8	2
143	85	479	74	40	1
144	86	501	8	9	2
145	87	502	8	9	2
146	88	479	5	270	1
147	89	503	114	10	2
148	89	503	8	15	2
149	89	504	114	10	2
150	89	504	8	16	2
151	89	505	114	10	2
152	89	505	8	18	2
153	90	350	1	380	1
154	91	350	113	50	1
155	91	350	6	380	1
156	92	350	7	80	1
157	93	350	30	4	2
158	93	350	8	14	2
159	94	350	5	110	1
160	94	350	72	100	1
161	94	350	36	40	1
162	95	351	1	420	1
163	96	351	113	6	1
164	96	351	6	42	1
165	97	351	7	130	1
166	98	351	30	6	2
167	98	351	8	16	2
168	99	351	5	120	1
169	99	351	72	140	1
170	99	351	36	70	1
171	100	410	114	40	2
172	100	410	80	50	1
173	100	410	8	35	2
174	101	480	1	480	1
175	102	480	113	50	1
176	102	480	30	2	2
177	102	480	8	6	2
178	103	480	74	14	1
179	104	506	8	10	2
180	105	507	8	10	2
181	106	480	5	150	1
182	106	480	72	180	1
183	107	508	114	10	2
184	107	508	8	16	2
185	107	509	114	10	2
186	107	509	8	17	2
187	107	510	114	10	2
188	107	510	8	19	2
189	108	352	1	420	1
190	109	352	113	60	1
191	109	352	6	200	1
192	110	352	78	24	1
193	110	352	7	18	1
194	111	352	30	4	2
195	111	352	80	30	1
196	112	352	5	150	1
197	113	353	1	500	1
198	114	353	113	70	1
199	114	353	6	320	1
200	115	353	78	30	1
201	116	353	30	6	2
202	116	353	80	40	1
203	117	353	5	170	1
204	118	399	114	40	2
205	118	399	80	130	1
206	119	171	1	580	1
207	120	171	113	52	1
208	120	171	30	2	2
209	120	171	80	16	1
210	121	171	78	40	1
211	122	172	80	23	1
212	123	173	80	23	1
213	124	171	5	200	1
214	125	174	114	10	2
215	125	174	80	44	1
216	125	175	114	10	2
217	125	175	80	45	1
218	125	176	114	10	2
219	125	176	80	47	1
220	126	512	1	280	1
221	127	512	113	70	1
222	127	512	6	160	1
223	127	512	79	90	1
224	128	512	7	40	1
225	129	512	80	30	1
226	129	512	8	12	2
227	130	512	5	90	1
228	131	513	1	320	1
229	132	513	113	80	1
230	132	513	6	180	1
231	132	513	79	150	1
232	133	513	7	50	1
233	134	513	80	40	1
234	134	513	8	14	2
235	135	513	5	100	1
236	136	518	114	35	2
237	136	518	80	90	1
238	136	518	8	30	2
239	137	519	1	370	1
240	138	519	113	50	1
241	138	519	79	180	1
242	138	519	80	16	1
243	138	519	8	6	2
244	139	519	5	65	1
245	140	520	80	10	1
246	140	520	8	6	2
247	141	521	80	10	1
248	141	521	8	6	2
249	142	519	5	65	1
250	143	522	114	10	2
251	143	522	80	12	1
252	143	522	8	12	2
253	143	523	114	10	2
254	143	523	80	13	1
255	143	523	8	13	2
256	143	524	114	10	2
257	143	524	80	14	1
258	143	524	8	14	2
259	144	663	1	340	1
260	145	663	113	80	1
261	145	663	6	160	1
262	146	663	7	40	1
263	146	663	37	16	1
264	147	663	32	4	2
265	147	663	128	2	2
266	147	663	139	30	1
267	148	663	5	90	1
268	149	664	1	380	1
269	150	664	32	4	2
270	150	664	6	320	1
271	151	664	7	300	1
272	151	664	37	24	1
273	152	664	113	100	1
274	152	664	128	2	2
275	153	664	139	40	1
276	154	667	114	45	2
277	154	667	80	130	1
278	155	668	1	330	1
279	156	668	113	68	1
280	156	668	32	2	2
281	156	668	128	2	2
282	156	668	139	14	1
283	157	668	37	30	1
284	158	669	80	24	1
285	159	670	80	24	1
286	160	668	5	130	1
287	161	671	114	10	2
288	161	671	80	45	1
289	161	672	114	10	2
290	161	672	80	47	1
291	161	673	114	10	2
292	161	673	80	50	1

